NAME          DCAP_2_4_3_500_SS383
ROWS
 N  OBJ
 L  CON1
 L  CON2
 L  CON3
 L  CON4
 L  CON5
 L  CON6
 L  CON7
 L  CON8
 L  CON9
 L  CON10
 L  CON11
 L  CON12
 E  CON13
 E  CON14
 E  CON15
 E  CON16
 E  CON17
 E  CON18
 E  CON19
 E  CON20
 E  CON21
 E  CON22
 E  CON23
 E  CON24
COLUMNS
    x[1,1]    OBJ       6.180167      CON1      1.000000    
    x[1,1]    CON7      -1.000000     CON8      -1.000000   
    x[1,1]    CON9      -1.000000   
    x[1,2]    OBJ       6.563535      CON2      1.000000    
    x[1,2]    CON8      -1.000000     CON9      -1.000000   
    x[1,3]    OBJ       7.443064      CON3      1.000000    
    x[1,3]    CON9      -1.000000   
    x[2,1]    OBJ       6.732585      CON4      1.000000    
    x[2,1]    CON10     -1.000000     CON11     -1.000000   
    x[2,1]    CON12     -1.000000   
    x[2,2]    OBJ       5.039546      CON5      1.000000    
    x[2,2]    CON11     -1.000000     CON12     -1.000000   
    x[2,3]    OBJ       6.054841      CON6      1.000000    
    x[2,3]    CON12     -1.000000   
    MARKER    'MARKER'                'INTORG'
    u[1,1]    OBJ       48.076654     CON1      -1.000000   
    u[1,2]    OBJ       20.066487     CON2      -1.000000   
    u[1,3]    OBJ       32.230043     CON3      -1.000000   
    u[2,1]    OBJ       49.996186     CON4      -1.000000   
    u[2,2]    OBJ       49.466655     CON5      -1.000000   
    u[2,3]    OBJ       27.484319     CON6      -1.000000   
    y[1,1,1]  OBJ       5.438228      CON7      0.625840    
    y[1,1,1]  CON13     1.000000    
    y[1,1,2]  OBJ       7.700125      CON8      1.349034    
    y[1,1,2]  CON14     1.000000    
    y[1,1,3]  OBJ       8.896741      CON9      1.399615    
    y[1,1,3]  CON15     1.000000    
    y[1,2,1]  OBJ       9.665932      CON7      0.808543    
    y[1,2,1]  CON16     1.000000    
    y[1,2,2]  OBJ       6.241684      CON8      0.832314    
    y[1,2,2]  CON17     1.000000    
    y[1,2,3]  OBJ       6.444118      CON9      0.741220    
    y[1,2,3]  CON18     1.000000    
    y[1,3,1]  OBJ       6.872294      CON7      0.879200    
    y[1,3,1]  CON19     1.000000    
    y[1,3,2]  OBJ       8.654061      CON8      0.563693    
    y[1,3,2]  CON20     1.000000    
    y[1,3,3]  OBJ       8.603220      CON9      1.467537    
    y[1,3,3]  CON21     1.000000    
    y[1,4,1]  OBJ       9.719443      CON7      0.731836    
    y[1,4,1]  CON22     1.000000    
    y[1,4,2]  OBJ       9.006428      CON8      0.777098    
    y[1,4,2]  CON23     1.000000    
    y[1,4,3]  OBJ       5.374861      CON9      1.184596    
    y[1,4,3]  CON24     1.000000    
    y[2,1,1]  OBJ       6.140313      CON10     0.625840    
    y[2,1,1]  CON13     1.000000    
    y[2,1,2]  OBJ       9.356600      CON11     1.349034    
    y[2,1,2]  CON14     1.000000    
    y[2,1,3]  OBJ       7.343473      CON12     1.399615    
    y[2,1,3]  CON15     1.000000    
    y[2,2,1]  OBJ       6.092198      CON10     0.808543    
    y[2,2,1]  CON16     1.000000    
    y[2,2,2]  OBJ       9.257743      CON11     0.832314    
    y[2,2,2]  CON17     1.000000    
    y[2,2,3]  OBJ       9.641878      CON12     0.741220    
    y[2,2,3]  CON18     1.000000    
    y[2,3,1]  OBJ       9.605475      CON10     0.879200    
    y[2,3,1]  CON19     1.000000    
    y[2,3,2]  OBJ       9.266326      CON11     0.563693    
    y[2,3,2]  CON20     1.000000    
    y[2,3,3]  OBJ       9.576920      CON12     1.467537    
    y[2,3,3]  CON21     1.000000    
    y[2,4,1]  OBJ       8.730176      CON10     0.731836    
    y[2,4,1]  CON22     1.000000    
    y[2,4,2]  OBJ       8.578992      CON11     0.777098    
    y[2,4,2]  CON23     1.000000    
    y[2,4,3]  OBJ       7.095376      CON12     1.184596    
    y[2,4,3]  CON24     1.000000    
    z[1,1]    OBJ       963.348535    CON13     1.000000    
    z[1,2]    OBJ       647.611780    CON14     1.000000    
    z[1,3]    OBJ       734.919179    CON15     1.000000    
    z[2,1]    OBJ       509.986166    CON16     1.000000    
    z[2,2]    OBJ       914.674647    CON17     1.000000    
    z[2,3]    OBJ       596.795240    CON18     1.000000    
    z[3,1]    OBJ       993.216547    CON19     1.000000    
    z[3,2]    OBJ       560.531700    CON20     1.000000    
    z[3,3]    OBJ       696.918144    CON21     1.000000    
    z[4,1]    OBJ       670.458103    CON22     1.000000    
    z[4,2]    OBJ       503.532406    CON23     1.000000    
    z[4,3]    OBJ       676.353989    CON24     1.000000    
    MARKER    'MARKER'                 'INTEND'
RHS
    RHS       CON1      -0.000000     CON2      -0.000000   
    RHS       CON3      -0.000000     CON4      -0.000000   
    RHS       CON5      -0.000000     CON6      -0.000000   
    RHS       CON7      -0.000000     CON8      -0.000000   
    RHS       CON9      -0.000000     CON10     -0.000000   
    RHS       CON11     -0.000000     CON12     -0.000000   
    RHS       CON13     1.000000      CON14     1.000000    
    RHS       CON15     1.000000      CON16     1.000000    
    RHS       CON17     1.000000      CON18     1.000000    
    RHS       CON19     1.000000      CON20     1.000000    
    RHS       CON21     1.000000      CON22     1.000000    
    RHS       CON23     1.000000      CON24     1.000000    
BOUNDS
 BV BOUND     u[1,1]  
 BV BOUND     u[1,2]  
 BV BOUND     u[1,3]  
 BV BOUND     u[2,1]  
 BV BOUND     u[2,2]  
 BV BOUND     u[2,3]  
 BV BOUND     y[1,1,1]
 BV BOUND     y[1,1,2]
 BV BOUND     y[1,1,3]
 BV BOUND     y[1,2,1]
 BV BOUND     y[1,2,2]
 BV BOUND     y[1,2,3]
 BV BOUND     y[1,3,1]
 BV BOUND     y[1,3,2]
 BV BOUND     y[1,3,3]
 BV BOUND     y[1,4,1]
 BV BOUND     y[1,4,2]
 BV BOUND     y[1,4,3]
 BV BOUND     y[2,1,1]
 BV BOUND     y[2,1,2]
 BV BOUND     y[2,1,3]
 BV BOUND     y[2,2,1]
 BV BOUND     y[2,2,2]
 BV BOUND     y[2,2,3]
 BV BOUND     y[2,3,1]
 BV BOUND     y[2,3,2]
 BV BOUND     y[2,3,3]
 BV BOUND     y[2,4,1]
 BV BOUND     y[2,4,2]
 BV BOUND     y[2,4,3]
 BV BOUND     z[1,1]  
 BV BOUND     z[1,2]  
 BV BOUND     z[1,3]  
 BV BOUND     z[2,1]  
 BV BOUND     z[2,2]  
 BV BOUND     z[2,3]  
 BV BOUND     z[3,1]  
 BV BOUND     z[3,2]  
 BV BOUND     z[3,3]  
 BV BOUND     z[4,1]  
 BV BOUND     z[4,2]  
 BV BOUND     z[4,3]  
ENDATA
